25
1 0 1
2 0 1
3 0 1
3 1 1
3 2 1
4 2 1
5 0 1
5 1 1
5 3 1
5 4 1
6 3 1
6 4 1
6 5 1
7 0 1
7 6 1
8 0 1
8 2 1
8 3 1
9 2 1
9 3 1
9 5 1
9 6 1
10 0 1
10 1 1
10 2 1
10 3 1
10 5 1
10 6 1
10 9 1
11 3 1
11 4 1
11 8 1
11 9 1
11 10 1
12 0 1
12 6 1
12 9 1
12 10 1
12 11 1
13 1 1
13 3 1
13 5 1
13 7 1
13 9 1
14 1 1
14 2 1
14 3 1
14 7 1
14 9 1
14 12 1
15 3 1
15 4 1
15 5 1
15 8 1
15 12 1
15 13 1
16 2 1
16 3 1
16 4 1
16 6 1
16 7 1
16 9 1
16 10 1
16 11 1
16 13 1
17 4 1
17 5 1
17 6 1
17 13 1
17 14 1
18 1 1
18 3 1
18 4 1
18 9 1
18 11 1
18 13 1
18 15 1
18 16 1
18 17 1
19 3 1
19 4 1
19 9 1
19 11 1
19 13 1
19 14 1
19 16 1
19 18 1
20 0 1
20 2 1
20 3 1
20 4 1
20 5 1
20 6 1
20 12 1
20 16 1
20 17 1
20 18 1
20 19 1
21 0 1
21 1 1
21 5 1
21 7 1
21 9 1
21 13 1
21 15 1
21 16 1
21 20 1
22 0 1
22 2 1
22 3 1
22 5 1
22 7 1
22 12 1
22 13 1
22 15 1
22 16 1
22 19 1
22 20 1
22 21 1
23 6 1
23 8 1
23 9 1
23 10 1
23 11 1
23 14 1
23 17 1
23 18 1
23 19 1
23 21 1
23 22 1
24 0 1
24 1 1
24 2 1
24 4 1
24 5 1
24 7 1
24 8 1
24 9 1
24 12 1
24 13 1
24 14 1
24 17 1
24 22 1
